sat
(:arith-lower         8
 :arith-make-feasible 4
 :arith-max-columns   33
 :arith-max-rows      13
 :arith-upper         28
 :binary-propagations 2
 :decisions           3
 :final-checks        1
 :max-memory          18.40
 :memory              17.88
 :mk-bool-var         36
 :mk-clause-binary    3
 :num-allocs          123891
 :num-checks          1
 :propagations        2
 :rlimit-count        3638
 :solve-eqs-elim-vars 14
 :solve-eqs-steps     44
 :time                0.00
 :total-time          0.01)
